benchmarks_CP/INST_64x64/50/inst64x64_50_37.dzn
S=8;
start=[|
-1,	-1,	-1,	-1,	-1,	-1,	-1,	57,	-1,	-1,	-1,	-1,	60,	-1,	39,	-1,	55,	-1,	30,	48,	-1,	-1,	33,	-1,	-1,	-1,	37,	35,	-1,	-1,	-1,	26,	-1,	54,	-1,	-1,	-1,	18,	29,	5,	-1,	-1,	43,	50,	49,	-1,	-1,	51,	-1,	1,	-1,	11,	-1,	-1,	-1,	-1,	-1,	-1,	19,	-1,	22,	21,	45,	63|
29,	-1,	50,	54,	-1,	24,	9,	61,	-1,	48,	58,	-1,	-1,	-1,	-1,	-1,	19,	47,	-1,	18,	-1,	40,	-1,	25,	-1,	49,	13,	31,	46,	-1,	23,	42,	60,	-1,	34,	-1,	14,	7,	57,	-1,	-1,	-1,	45,	33,	16,	-1,	-1,	-1,	-1,	10,	27,	39,	52,	-1,	-1,	22,	-1,	-1,	30,	4,	55,	28,	26,	5|
4,	-1,	12,	6,	33,	58,	-1,	-1,	-1,	-1,	-1,	-1,	-1,	-1,	27,	-1,	38,	49,	-1,	17,	61,	39,	-1,	23,	14,	59,	-1,	34,	-1,	-1,	-1,	-1,	-1,	47,	32,	-1,	22,	35,	31,	-1,	13,	-1,	-1,	-1,	-1,	10,	42,	60,	30,	21,	-1,	54,	19,	45,	57,	26,	24,	48,	-1,	46,	43,	-1,	18,	64|
51,	52,	47,	49,	39,	-1,	5,	-1,	3,	-1,	-1,	10,	9,	-1,	33,	64,	59,	62,	-1,	-1,	-1,	-1,	46,	56,	-1,	7,	19,	4,	25,	32,	12,	-1,	-1,	-1,	-1,	2,	21,	37,	-1,	-1,	1,	24,	-1,	36,	40,	26,	-1,	-1,	-1,	23,	-1,	17,	-1,	60,	31,	-1,	6,	61,	-1,	-1,	44,	-1,	-1,	15|
8,	-1,	-1,	-1,	36,	-1,	15,	30,	-1,	19,	26,	14,	21,	-1,	-1,	-1,	-1,	-1,	5,	-1,	-1,	64,	-1,	-1,	-1,	-1,	17,	-1,	57,	60,	-1,	-1,	-1,	-1,	52,	-1,	55,	33,	43,	9,	-1,	-1,	41,	31,	53,	-1,	-1,	34,	4,	-1,	42,	48,	-1,	59,	-1,	24,	-1,	-1,	-1,	1,	62,	-1,	56,	7|
-1,	-1,	21,	-1,	42,	31,	2,	-1,	-1,	-1,	49,	46,	-1,	22,	52,	-1,	-1,	-1,	-1,	9,	-1,	-1,	20,	-1,	5,	-1,	-1,	61,	11,	-1,	8,	33,	-1,	-1,	-1,	36,	-1,	-1,	-1,	-1,	29,	27,	-1,	-1,	59,	3,	39,	4,	63,	-1,	-1,	14,	7,	-1,	-1,	64,	37,	40,	-1,	-1,	47,	-1,	53,	-1|
-1,	59,	-1,	-1,	-1,	-1,	-1,	26,	-1,	37,	23,	31,	-1,	34,	50,	45,	24,	21,	6,	53,	12,	51,	-1,	-1,	-1,	-1,	30,	-1,	-1,	-1,	-1,	-1,	16,	4,	-1,	28,	15,	10,	-1,	46,	-1,	-1,	-1,	-1,	48,	-1,	11,	47,	8,	-1,	-1,	13,	40,	-1,	-1,	62,	-1,	-1,	-1,	-1,	-1,	52,	57,	-1|
-1,	43,	7,	23,	18,	35,	-1,	-1,	-1,	30,	5,	6,	-1,	-1,	-1,	32,	-1,	58,	-1,	16,	-1,	4,	2,	50,	21,	-1,	48,	64,	53,	-1,	-1,	-1,	1,	24,	41,	26,	49,	-1,	39,	13,	-1,	15,	54,	-1,	-1,	28,	52,	14,	-1,	3,	-1,	29,	55,	9,	37,	47,	59,	33,	-1,	-1,	51,	-1,	34,	-1|
64,	-1,	49,	-1,	29,	-1,	-1,	-1,	58,	12,	-1,	7,	54,	18,	53,	44,	-1,	15,	-1,	10,	62,	19,	34,	35,	-1,	-1,	45,	52,	31,	11,	-1,	1,	25,	-1,	-1,	-1,	-1,	-1,	-1,	17,	63,	-1,	-1,	42,	-1,	13,	-1,	50,	61,	14,	-1,	51,	-1,	38,	-1,	43,	60,	5,	-1,	22,	-1,	-1,	-1,	6|
32,	41,	6,	-1,	16,	63,	61,	46,	52,	23,	-1,	-1,	50,	28,	62,	24,	-1,	48,	12,	11,	40,	-1,	56,	-1,	4,	10,	-1,	-1,	-1,	21,	37,	57,	13,	35,	2,	-1,	-1,	-1,	-1,	-1,	-1,	31,	-1,	-1,	55,	9,	-1,	19,	-1,	58,	-1,	-1,	5,	-1,	-1,	27,	-1,	30,	36,	7,	34,	-1,	-1,	-1|
-1,	50,	3,	58,	-1,	28,	14,	-1,	22,	55,	-1,	26,	-1,	-1,	-1,	15,	-1,	-1,	-1,	8,	-1,	37,	-1,	39,	-1,	-1,	2,	7,	35,	-1,	-1,	-1,	5,	-1,	-1,	51,	11,	32,	-1,	64,	16,	23,	44,	53,	-1,	21,	-1,	-1,	56,	-1,	40,	42,	-1,	-1,	19,	57,	49,	31,	63,	47,	29,	1,	33,	43|
5,	62,	-1,	-1,	-1,	26,	4,	-1,	-1,	11,	-1,	-1,	-1,	-1,	-1,	42,	18,	-1,	44,	3,	-1,	-1,	38,	-1,	27,	23,	-1,	39,	-1,	41,	-1,	50,	6,	31,	-1,	-1,	-1,	49,	54,	33,	12,	20,	14,	25,	-1,	-1,	15,	-1,	-1,	-1,	-1,	9,	63,	-1,	16,	-1,	-1,	28,	58,	-1,	46,	48,	24,	-1|
-1,	57,	10,	42,	-1,	38,	20,	37,	-1,	-1,	60,	4,	-1,	36,	9,	1,	-1,	14,	-1,	-1,	55,	28,	41,	-1,	-1,	-1,	58,	-1,	12,	-1,	48,	32,	47,	18,	-1,	39,	63,	53,	27,	29,	46,	34,	59,	-1,	-1,	33,	-1,	-1,	-1,	-1,	64,	7,	-1,	-1,	49,	-1,	-1,	-1,	-1,	25,	3,	62,	35,	-1|
18,	-1,	54,	-1,	11,	19,	-1,	-1,	-1,	-1,	20,	57,	47,	56,	38,	-1,	5,	-1,	23,	-1,	33,	61,	17,	-1,	-1,	-1,	29,	-1,	-1,	-1,	63,	-1,	46,	-1,	-1,	-1,	16,	48,	-1,	-1,	-1,	-1,	35,	41,	36,	40,	26,	10,	37,	32,	-1,	4,	-1,	-1,	-1,	3,	50,	-1,	-1,	12,	-1,	45,	-1,	-1|
-1,	40,	-1,	13,	17,	-1,	23,	-1,	-1,	3,	41,	34,	64,	-1,	37,	14,	31,	-1,	-1,	29,	-1,	58,	-1,	1,	15,	-1,	47,	38,	61,	-1,	5,	-1,	-1,	-1,	57,	62,	60,	-1,	-1,	26,	28,	-1,	-1,	49,	-1,	-1,	-1,	-1,	45,	-1,	-1,	10,	-1,	46,	50,	-1,	54,	-1,	-1,	2,	20,	-1,	42,	51|
7,	-1,	34,	-1,	-1,	1,	21,	-1,	59,	-1,	-1,	27,	-1,	-1,	-1,	25,	26,	57,	-1,	24,	46,	47,	-1,	63,	-1,	64,	-1,	-1,	-1,	-1,	-1,	-1,	-1,	-1,	50,	-1,	-1,	-1,	14,	-1,	-1,	-1,	4,	51,	-1,	54,	-1,	-1,	-1,	-1,	-1,	60,	-1,	39,	62,	13,	17,	-1,	-1,	41,	-1,	23,	55,	53|
-1,	-1,	8,	-1,	-1,	-1,	38,	16,	-1,	-1,	-1,	-1,	-1,	3,	10,	-1,	1,	37,	42,	-1,	56,	-1,	31,	-1,	-1,	20,	-1,	-1,	-1,	-1,	-1,	-1,	-1,	-1,	36,	-1,	-1,	-1,	30,	-1,	-1,	58,	-1,	21,	45,	-1,	-1,	-1,	2,	50,	60,	57,	51,	-1,	-1,	-1,	62,	-1,	-1,	34,	5,	26,	43,	-1|
43,	-1,	-1,	21,	-1,	60,	47,	-1,	35,	62,	29,	-1,	6,	-1,	55,	34,	32,	11,	63,	-1,	-1,	54,	50,	28,	57,	-1,	-1,	-1,	15,	-1,	-1,	64,	-1,	10,	-1,	61,	56,	8,	17,	14,	37,	-1,	-1,	19,	18,	-1,	-1,	2,	-1,	-1,	-1,	-1,	-1,	12,	-1,	42,	-1,	25,	-1,	30,	45,	53,	-1,	-1|
-1,	54,	-1,	-1,	-1,	-1,	18,	-1,	63,	61,	-1,	-1,	-1,	37,	11,	12,	58,	10,	47,	45,	16,	-1,	-1,	62,	50,	-1,	-1,	-1,	-1,	-1,	40,	4,	21,	41,	-1,	22,	-1,	29,	46,	-1,	-1,	38,	15,	-1,	-1,	-1,	-1,	-1,	-1,	13,	-1,	-1,	-1,	28,	-1,	-1,	-1,	60,	35,	51,	64,	-1,	-1,	39|
41,	-1,	-1,	33,	1,	34,	-1,	-1,	48,	-1,	51,	13,	56,	43,	40,	39,	-1,	-1,	-1,	61,	4,	-1,	-1,	-1,	55,	-1,	21,	60,	-1,	-1,	16,	-1,	62,	28,	7,	-1,	23,	-1,	-1,	-1,	-1,	22,	-1,	-1,	-1,	57,	35,	-1,	-1,	-1,	29,	-1,	58,	-1,	24,	-1,	-1,	9,	-1,	32,	-1,	-1,	-1,	-1|
11,	-1,	55,	-1,	-1,	-1,	40,	-1,	19,	20,	-1,	38,	-1,	-1,	-1,	-1,	-1,	-1,	-1,	15,	3,	-1,	-1,	-1,	33,	-1,	27,	12,	-1,	-1,	32,	7,	-1,	-1,	25,	-1,	43,	9,	-1,	-1,	14,	60,	17,	-1,	-1,	-1,	53,	-1,	52,	64,	-1,	-1,	-1,	31,	-1,	36,	8,	-1,	-1,	-1,	-1,	-1,	28,	49|
-1,	32,	2,	25,	3,	-1,	-1,	-1,	-1,	64,	8,	36,	33,	-1,	-1,	-1,	40,	-1,	18,	49,	60,	-1,	39,	-1,	1,	-1,	-1,	-1,	-1,	-1,	47,	-1,	-1,	-1,	-1,	11,	-1,	15,	-1,	34,	62,	51,	5,	-1,	6,	-1,	-1,	-1,	-1,	-1,	-1,	21,	45,	16,	-1,	19,	7,	13,	44,	55,	-1,	20,	54,	23|
6,	-1,	15,	37,	-1,	7,	49,	27,	32,	-1,	-1,	9,	-1,	-1,	-1,	-1,	-1,	26,	-1,	-1,	-1,	57,	-1,	-1,	-1,	-1,	10,	-1,	-1,	54,	-1,	-1,	39,	-1,	19,	-1,	-1,	60,	58,	-1,	-1,	-1,	-1,	48,	-1,	-1,	50,	43,	62,	-1,	-1,	-1,	-1,	-1,	-1,	-1,	-1,	16,	46,	-1,	40,	63,	47,	-1|
61,	23,	-1,	52,	45,	13,	-1,	-1,	-1,	57,	-1,	-1,	-1,	15,	-1,	60,	-1,	9,	27,	-1,	6,	-1,	24,	-1,	-1,	-1,	-1,	56,	62,	8,	-1,	-1,	20,	-1,	51,	-1,	53,	16,	-1,	-1,	44,	32,	40,	-1,	-1,	29,	-1,	41,	-1,	-1,	63,	47,	-1,	5,	-1,	54,	3,	-1,	-1,	-1,	31,	19,	37,	-1|
48,	-1,	-1,	-1,	-1,	-1,	-1,	25,	51,	21,	33,	50,	-1,	12,	-1,	-1,	-1,	60,	-1,	27,	-1,	-1,	-1,	-1,	-1,	61,	-1,	-1,	7,	36,	-1,	-1,	43,	30,	3,	-1,	-1,	45,	-1,	-1,	18,	44,	-1,	-1,	42,	-1,	23,	52,	-1,	19,	-1,	-1,	13,	63,	14,	31,	64,	26,	-1,	-1,	59,	17,	39,	-1|
37,	-1,	45,	40,	46,	51,	-1,	17,	25,	-1,	-1,	-1,	61,	6,	-1,	-1,	56,	-1,	36,	39,	-1,	23,	-1,	13,	63,	58,	-1,	2,	29,	48,	26,	-1,	-1,	33,	27,	44,	-1,	52,	-1,	18,	-1,	-1,	16,	-1,	-1,	43,	-1,	3,	57,	-1,	55,	-1,	20,	-1,	34,	-1,	-1,	53,	62,	11,	-1,	10,	-1,	-1|
-1,	-1,	-1,	-1,	43,	-1,	-1,	-1,	64,	60,	16,	-1,	-1,	-1,	-1,	-1,	61,	44,	-1,	-1,	-1,	12,	-1,	33,	-1,	-1,	-1,	17,	-1,	-1,	-1,	10,	34,	-1,	-1,	7,	19,	57,	21,	58,	48,	-1,	-1,	-1,	-1,	-1,	-1,	-1,	-1,	-1,	-1,	18,	-1,	27,	22,	38,	32,	-1,	-1,	40,	-1,	5,	29,	1|
10,	58,	23,	41,	-1,	2,	-1,	3,	-1,	40,	56,	48,	63,	-1,	-1,	-1,	-1,	19,	62,	55,	14,	-1,	-1,	-1,	-1,	38,	57,	28,	-1,	-1,	-1,	45,	-1,	-1,	26,	-1,	6,	51,	-1,	31,	39,	7,	-1,	27,	54,	12,	-1,	-1,	43,	44,	-1,	35,	36,	50,	-1,	33,	-1,	37,	34,	-1,	-1,	30,	61,	-1|
52,	-1,	-1,	-1,	-1,	27,	-1,	22,	-1,	-1,	-1,	-1,	-1,	26,	3,	43,	-1,	-1,	-1,	32,	31,	42,	7,	-1,	-1,	34,	12,	-1,	19,	-1,	-1,	-1,	56,	16,	-1,	-1,	38,	14,	8,	36,	61,	21,	33,	-1,	-1,	60,	40,	-1,	29,	-1,	62,	2,	-1,	47,	11,	9,	-1,	50,	-1,	-1,	-1,	57,	58,	-1|
14,	64,	-1,	11,	19,	-1,	59,	-1,	-1,	18,	42,	-1,	-1,	-1,	-1,	29,	-1,	24,	-1,	-1,	1,	16,	-1,	10,	-1,	56,	-1,	21,	27,	43,	-1,	-1,	-1,	-1,	-1,	25,	-1,	12,	-1,	-1,	51,	28,	-1,	38,	-1,	-1,	-1,	-1,	-1,	17,	-1,	-1,	-1,	-1,	-1,	61,	46,	22,	45,	-1,	9,	-1,	-1,	-1|
-1,	12,	61,	-1,	38,	-1,	54,	36,	-1,	-1,	62,	-1,	27,	-1,	-1,	-1,	-1,	-1,	59,	-1,	-1,	-1,	57,	8,	-1,	40,	-1,	44,	39,	-1,	-1,	13,	17,	2,	-1,	5,	-1,	-1,	-1,	-1,	-1,	19,	-1,	-1,	-1,	-1,	-1,	26,	-1,	45,	-1,	23,	42,	30,	-1,	-1,	51,	63,	49,	15,	41,	-1,	16,	-1|
60,	30,	-1,	18,	-1,	-1,	34,	-1,	31,	-1,	14,	-1,	-1,	-1,	-1,	20,	2,	-1,	-1,	-1,	45,	-1,	48,	52,	41,	8,	23,	42,	-1,	-1,	-1,	15,	-1,	-1,	-1,	55,	-1,	28,	-1,	50,	10,	57,	1,	32,	-1,	-1,	-1,	-1,	-1,	-1,	-1,	58,	26,	-1,	5,	56,	-1,	-1,	27,	-1,	-1,	35,	-1,	44|
59,	-1,	64,	-1,	-1,	37,	33,	-1,	-1,	-1,	46,	42,	-1,	-1,	-1,	35,	7,	-1,	8,	-1,	-1,	-1,	-1,	-1,	28,	47,	1,	43,	-1,	61,	34,	23,	-1,	22,	49,	21,	17,	30,	60,	53,	-1,	-1,	-1,	-1,	-1,	32,	-1,	63,	58,	55,	-1,	-1,	14,	-1,	12,	-1,	57,	-1,	26,	-1,	11,	29,	48,	-1|
55,	7,	-1,	-1,	50,	-1,	1,	24,	-1,	-1,	-1,	64,	-1,	-1,	-1,	-1,	-1,	3,	43,	44,	-1,	-1,	49,	17,	-1,	-1,	-1,	36,	-1,	-1,	-1,	-1,	11,	5,	-1,	-1,	-1,	-1,	-1,	62,	-1,	47,	-1,	39,	20,	-1,	41,	42,	-1,	-1,	-1,	38,	35,	-1,	-1,	-1,	58,	34,	56,	-1,	-1,	22,	23,	-1|
-1,	-1,	11,	-1,	-1,	5,	-1,	-1,	24,	-1,	45,	43,	4,	13,	63,	54,	-1,	34,	20,	-1,	19,	-1,	36,	-1,	-1,	-1,	-1,	49,	-1,	-1,	62,	-1,	8,	55,	6,	16,	-1,	59,	37,	-1,	40,	12,	53,	26,	23,	22,	-1,	1,	-1,	-1,	-1,	-1,	60,	3,	-1,	-1,	47,	2,	-1,	28,	-1,	51,	25,	46|
57,	35,	32,	45,	-1,	47,	-1,	-1,	-1,	33,	-1,	21,	18,	-1,	-1,	-1,	-1,	51,	10,	-1,	-1,	-1,	37,	-1,	8,	-1,	-1,	26,	2,	-1,	-1,	41,	-1,	-1,	31,	23,	46,	63,	34,	12,	-1,	9,	11,	4,	-1,	-1,	61,	55,	-1,	42,	-1,	50,	-1,	-1,	-1,	-1,	5,	20,	-1,	38,	-1,	-1,	-1,	16|
-1,	63,	14,	27,	-1,	42,	-1,	23,	-1,	26,	-1,	-1,	-1,	-1,	-1,	-1,	-1,	-1,	-1,	-1,	47,	-1,	55,	-1,	37,	-1,	40,	5,	4,	33,	-1,	19,	-1,	29,	-1,	-1,	32,	-1,	1,	-1,	-1,	-1,	51,	-1,	44,	-1,	7,	-1,	59,	34,	-1,	-1,	-1,	-1,	-1,	-1,	36,	-1,	50,	18,	60,	49,	3,	-1|
-1,	-1,	9,	-1,	-1,	-1,	39,	-1,	-1,	16,	59,	23,	-1,	31,	-1,	28,	35,	-1,	24,	-1,	64,	-1,	21,	-1,	25,	-1,	38,	10,	58,	-1,	-1,	-1,	-1,	7,	-1,	-1,	52,	-1,	-1,	-1,	54,	45,	49,	-1,	-1,	-1,	30,	-1,	47,	-1,	-1,	46,	33,	-1,	36,	-1,	40,	-1,	-1,	-1,	32,	-1,	17,	8|
40,	6,	22,	-1,	26,	-1,	41,	8,	53,	34,	1,	37,	-1,	-1,	-1,	10,	-1,	16,	25,	12,	23,	27,	-1,	58,	-1,	60,	-1,	48,	3,	50,	18,	11,	45,	-1,	42,	-1,	36,	47,	51,	-1,	33,	-1,	-1,	-1,	28,	-1,	64,	21,	-1,	43,	-1,	56,	61,	7,	13,	-1,	-1,	15,	-1,	9,	-1,	-1,	63,	-1|
-1,	34,	38,	-1,	52,	-1,	-1,	-1,	-1,	8,	32,	29,	-1,	-1,	51,	-1,	33,	41,	26,	-1,	39,	11,	45,	9,	-1,	31,	7,	46,	17,	22,	-1,	-1,	35,	-1,	13,	-1,	3,	4,	-1,	25,	59,	-1,	-1,	60,	-1,	6,	5,	48,	40,	63,	-1,	27,	23,	-1,	21,	-1,	-1,	-1,	-1,	44,	-1,	-1,	-1,	54|
-1,	-1,	-1,	-1,	-1,	9,	-1,	60,	20,	-1,	-1,	63,	-1,	-1,	36,	26,	-1,	55,	51,	4,	34,	-1,	-1,	47,	-1,	52,	-1,	-1,	-1,	-1,	57,	27,	38,	-1,	18,	14,	-1,	39,	-1,	35,	-1,	30,	58,	-1,	-1,	-1,	54,	-1,	11,	-1,	37,	12,	-1,	-1,	-1,	23,	-1,	-1,	43,	-1,	1,	-1,	-1,	-1|
-1,	-1,	-1,	-1,	-1,	-1,	51,	-1,	-1,	14,	-1,	-1,	-1,	-1,	6,	4,	-1,	-1,	58,	-1,	17,	35,	-1,	-1,	-1,	-1,	-1,	19,	-1,	-1,	-1,	-1,	-1,	27,	-1,	-1,	57,	23,	3,	-1,	-1,	-1,	-1,	-1,	7,	45,	9,	22,	-1,	-1,	52,	-1,	-1,	-1,	-1,	39,	-1,	62,	47,	60,	63,	18,	-1,	-1|
-1,	-1,	52,	38,	55,	23,	-1,	18,	-1,	-1,	64,	33,	41,	44,	-1,	-1,	-1,	45,	61,	36,	5,	8,	-1,	49,	54,	62,	-1,	-1,	1,	-1,	56,	-1,	40,	37,	-1,	32,	-1,	-1,	16,	-1,	34,	53,	47,	43,	-1,	-1,	-1,	25,	-1,	20,	13,	15,	48,	42,	-1,	-1,	27,	-1,	-1,	-1,	6,	14,	-1,	50|
17,	-1,	56,	-1,	6,	-1,	-1,	64,	-1,	31,	13,	-1,	-1,	38,	-1,	-1,	-1,	59,	-1,	14,	22,	32,	-1,	57,	60,	-1,	46,	47,	-1,	-1,	-1,	-1,	-1,	50,	62,	-1,	-1,	36,	-1,	-1,	15,	-1,	39,	28,	-1,	49,	-1,	20,	-1,	4,	-1,	-1,	27,	51,	63,	-1,	-1,	3,	12,	-1,	-1,	9,	-1,	26|
39,	-1,	43,	-1,	-1,	-1,	-1,	-1,	49,	27,	-1,	-1,	12,	19,	-1,	-1,	-1,	-1,	40,	-1,	18,	50,	1,	-1,	58,	-1,	59,	-1,	41,	-1,	-1,	-1,	51,	-1,	-1,	54,	24,	-1,	64,	6,	56,	16,	42,	-1,	52,	-1,	-1,	-1,	-1,	-1,	-1,	-1,	21,	55,	-1,	-1,	45,	32,	28,	-1,	17,	13,	-1,	37|
22,	-1,	5,	57,	21,	-1,	-1,	12,	-1,	-1,	-1,	24,	-1,	-1,	28,	-1,	-1,	-1,	-1,	-1,	-1,	41,	43,	27,	-1,	32,	-1,	51,	-1,	2,	42,	-1,	-1,	52,	47,	-1,	-1,	-1,	45,	59,	17,	-1,	18,	40,	-1,	-1,	19,	36,	-1,	31,	-1,	33,	6,	62,	1,	35,	4,	38,	-1,	49,	-1,	-1,	10,	20|
-1,	-1,	-1,	-1,	40,	41,	-1,	-1,	39,	-1,	-1,	60,	43,	52,	56,	22,	-1,	-1,	46,	54,	24,	31,	63,	19,	9,	-1,	18,	-1,	45,	55,	-1,	38,	2,	-1,	28,	-1,	-1,	1,	25,	-1,	-1,	33,	62,	-1,	-1,	-1,	-1,	-1,	44,	16,	-1,	-1,	-1,	-1,	29,	-1,	-1,	-1,	51,	61,	53,	64,	15,	-1|
47,	1,	-1,	-1,	24,	-1,	62,	-1,	9,	-1,	61,	-1,	45,	-1,	23,	-1,	-1,	33,	60,	6,	26,	2,	-1,	-1,	10,	-1,	36,	15,	-1,	31,	-1,	-1,	-1,	-1,	17,	46,	4,	19,	63,	-1,	57,	-1,	37,	-1,	29,	38,	-1,	-1,	-1,	40,	-1,	-1,	-1,	14,	-1,	-1,	-1,	7,	55,	-1,	-1,	34,	-1,	35|
-1,	-1,	-1,	-1,	61,	-1,	-1,	-1,	-1,	-1,	-1,	-1,	1,	14,	-1,	-1,	-1,	-1,	-1,	-1,	44,	25,	-1,	-1,	24,	-1,	4,	9,	42,	-1,	20,	29,	57,	48,	-1,	-1,	35,	-1,	47,	-1,	38,	-1,	32,	-1,	-1,	-1,	33,	-1,	-1,	-1,	41,	52,	50,	18,	-1,	45,	-1,	46,	15,	10,	36,	55,	64,	-1|
-1,	-1,	-1,	22,	64,	-1,	16,	-1,	15,	-1,	34,	-1,	-1,	-1,	-1,	-1,	-1,	43,	50,	58,	9,	26,	-1,	4,	-1,	19,	51,	-1,	56,	37,	-1,	47,	28,	-1,	-1,	27,	30,	-1,	36,	-1,	5,	-1,	-1,	55,	-1,	-1,	31,	12,	13,	-1,	-1,	44,	-1,	-1,	-1,	11,	-1,	-1,	53,	-1,	57,	24,	-1,	32|
23,	-1,	-1,	15,	-1,	-1,	-1,	44,	-1,	-1,	38,	-1,	52,	42,	24,	19,	28,	5,	-1,	64,	20,	59,	-1,	-1,	17,	18,	-1,	-1,	43,	-1,	60,	46,	-1,	8,	-1,	-1,	29,	-1,	-1,	7,	35,	-1,	22,	-1,	-1,	1,	45,	-1,	39,	62,	31,	63,	-1,	-1,	-1,	34,	16,	-1,	2,	21,	-1,	47,	-1,	25|
24,	56,	-1,	-1,	-1,	-1,	-1,	10,	43,	54,	-1,	-1,	-1,	-1,	46,	-1,	-1,	27,	-1,	1,	29,	6,	35,	38,	-1,	48,	22,	23,	26,	-1,	-1,	12,	-1,	-1,	60,	3,	34,	-1,	40,	-1,	20,	-1,	9,	7,	58,	2,	36,	-1,	64,	15,	-1,	-1,	-1,	32,	42,	5,	63,	-1,	18,	-1,	-1,	8,	-1,	41|
-1,	-1,	-1,	-1,	7,	-1,	57,	-1,	-1,	36,	37,	12,	26,	2,	-1,	-1,	-1,	17,	-1,	-1,	-1,	-1,	-1,	18,	13,	-1,	35,	32,	-1,	34,	-1,	63,	-1,	23,	-1,	-1,	20,	-1,	42,	-1,	47,	-1,	-1,	-1,	-1,	-1,	16,	-1,	-1,	-1,	21,	-1,	53,	-1,	48,	6,	1,	43,	22,	-1,	-1,	4,	-1,	45|
1,	-1,	-1,	32,	-1,	14,	28,	58,	-1,	-1,	57,	-1,	62,	-1,	21,	-1,	47,	61,	31,	52,	37,	48,	12,	-1,	45,	-1,	-1,	-1,	5,	-1,	-1,	-1,	-1,	-1,	-1,	13,	-1,	22,	6,	-1,	-1,	-1,	26,	-1,	50,	11,	34,	15,	24,	-1,	54,	-1,	-1,	-1,	43,	46,	29,	-1,	-1,	39,	-1,	44,	-1,	-1|
35,	-1,	13,	17,	-1,	-1,	-1,	41,	29,	-1,	53,	-1,	-1,	-1,	32,	-1,	-1,	-1,	11,	23,	-1,	-1,	16,	46,	31,	-1,	-1,	-1,	28,	-1,	-1,	61,	-1,	-1,	-1,	15,	51,	50,	-1,	4,	-1,	-1,	-1,	52,	43,	-1,	63,	18,	25,	57,	-1,	-1,	-1,	22,	-1,	-1,	34,	27,	60,	-1,	-1,	-1,	-1,	-1|
42,	47,	27,	-1,	-1,	-1,	37,	2,	-1,	58,	-1,	-1,	-1,	-1,	44,	-1,	49,	22,	-1,	-1,	-1,	-1,	-1,	15,	-1,	50,	25,	-1,	38,	39,	-1,	40,	-1,	32,	-1,	52,	64,	-1,	-1,	-1,	6,	29,	46,	-1,	-1,	24,	60,	-1,	20,	33,	-1,	-1,	-1,	-1,	23,	4,	31,	19,	-1,	-1,	61,	-1,	-1,	-1|
-1,	39,	20,	30,	35,	18,	-1,	1,	-1,	-1,	-1,	-1,	58,	-1,	-1,	50,	-1,	38,	41,	31,	-1,	44,	-1,	5,	-1,	28,	9,	62,	34,	-1,	21,	3,	36,	-1,	-1,	17,	-1,	-1,	24,	-1,	-1,	-1,	-1,	57,	-1,	-1,	27,	32,	-1,	-1,	-1,	6,	-1,	-1,	-1,	-1,	22,	-1,	-1,	53,	-1,	-1,	-1,	29|
-1,	3,	-1,	-1,	-1,	-1,	-1,	63,	-1,	-1,	-1,	55,	-1,	62,	-1,	59,	29,	-1,	52,	34,	49,	-1,	14,	-1,	48,	1,	-1,	-1,	51,	-1,	53,	5,	-1,	56,	8,	4,	42,	27,	19,	-1,	-1,	-1,	31,	-1,	47,	-1,	-1,	-1,	23,	-1,	-1,	-1,	18,	-1,	-1,	-1,	41,	35,	64,	37,	-1,	6,	-1,	-1|
53,	14,	60,	59,	-1,	56,	-1,	-1,	26,	43,	10,	-1,	51,	-1,	2,	61,	25,	-1,	-1,	19,	50,	-1,	62,	12,	-1,	33,	-1,	24,	-1,	20,	-1,	-1,	-1,	-1,	46,	9,	-1,	-1,	-1,	57,	41,	49,	-1,	-1,	64,	16,	-1,	-1,	-1,	35,	58,	30,	-1,	-1,	-1,	-1,	-1,	11,	-1,	-1,	-1,	-1,	-1,	-1|
-1,	-1,	-1,	48,	57,	-1,	50,	-1,	-1,	-1,	-1,	52,	-1,	-1,	-1,	-1,	16,	42,	56,	22,	-1,	-1,	58,	55,	35,	2,	8,	-1,	-1,	-1,	14,	44,	54,	53,	-1,	63,	-1,	38,	41,	32,	26,	59,	-1,	6,	30,	51,	43,	-1,	-1,	36,	11,	-1,	-1,	13,	-1,	60,	-1,	47,	-1,	-1,	49,	-1,	-1,	34|
-1,	-1,	-1,	19,	-1,	11,	-1,	-1,	-1,	46,	36,	44,	14,	-1,	-1,	-1,	-1,	-1,	37,	-1,	-1,	18,	-1,	24,	61,	12,	-1,	-1,	-1,	58,	-1,	52,	29,	-1,	33,	64,	-1,	6,	-1,	-1,	-1,	-1,	7,	-1,	-1,	8,	22,	56,	1,	-1,	-1,	-1,	-1,	34,	-1,	51,	-1,	57,	3,	50,	39,	32,	9,	-1|
27,	55,	-1,	7,	32,	61,	-1,	47,	45,	29,	-1,	54,	-1,	-1,	-1,	33,	8,	-1,	-1,	46,	-1,	20,	40,	43,	-1,	-1,	60,	22,	13,	-1,	39,	6,	-1,	-1,	-1,	-1,	-1,	34,	-1,	-1,	52,	-1,	23,	18,	21,	-1,	38,	-1,	50,	-1,	16,	-1,	62,	57,	9,	44,	-1,	-1,	1,	63,	-1,	-1,	-1,	56|
-1,	-1,	-1,	8,	-1,	10,	-1,	62,	37,	-1,	47,	19,	22,	27,	34,	6,	9,	2,	-1,	-1,	-1,	13,	51,	-1,	-1,	57,	64,	29,	-1,	4,	30,	-1,	7,	-1,	-1,	-1,	18,	-1,	11,	16,	45,	-1,	-1,	58,	61,	36,	20,	53,	-1,	41,	14,	-1,	-1,	-1,	39,	-1,	44,	-1,	23,	42,	-1,	43,	-1,	60|
-1,	45,	-1,	51,	58,	64,	-1,	-1,	-1,	49,	24,	-1,	-1,	-1,	1,	30,	-1,	-1,	-1,	33,	57,	-1,	-1,	3,	36,	27,	-1,	41,	-1,	19,	-1,	16,	59,	-1,	61,	20,	-1,	13,	10,	23,	-1,	42,	48,	9,	-1,	-1,	2,	-1,	22,	-1,	38,	-1,	-1,	53,	-1,	63,	26,	55,	-1,	-1,	14,	-1,	31,	18|];
