sudoku-ls/benchmarks_LEQ/INST_64x64/50/inst64x64_50_37.txt
8
1
-1	10	40	-1	-1	25	-1	-1	4	56	17	15	60	7	-1	62	-1	-1	-1	-1	52	-1	33	-1	-1	24	-1	-1	16	47	28	-1	-1	54	-1	-1	59	-1	-1	5	-1	-1	43	50	49	-1	-1	51	-1	-1	36	-1	-1	-1	46	58	-1	-1	19	-1	-1	-1	-1	-1
29	-1	-1	-1	-1	24	9	61	-1	48	58	20	-1	-1	-1	-1	-1	-1	1	18	11	-1	8	-1	56	-1	13	31	-1	-1	-1	-1	60	-1	34	-1	-1	7	57	51	21	-1	45	-1	-1	64	-1	17	35	10	27	39	-1	2	15	-1	38	-1	30	4	-1	28	26	5
4	-1	12	-1	-1	-1	-1	20	55	-1	25	2	-1	-1	27	-1	38	49	-1	-1	61	39	-1	-1	-1	-1	-1	-1	50	52	36	-1	-1	47	-1	40	22	-1	-1	8	-1	-1	56	-1	62	10	42	60	30	21	-1	-1	19	-1	57	26	-1	-1	-1	46	-1	11	-1	64
-1	52	47	-1	-1	45	-1	34	-1	-1	18	10	9	-1	33	64	59	62	29	28	-1	-1	46	-1	22	7	19	4	-1	-1	12	55	-1	42	48	2	21	37	20	-1	-1	-1	38	-1	40	26	57	-1	41	-1	-1	-1	16	60	31	53	-1	61	-1	27	-1	58	-1	15
-1	-1	28	-1	-1	-1	-1	30	16	19	-1	14	-1	-1	47	-1	-1	-1	-1	-1	-1	-1	3	-1	29	51	17	40	-1	-1	-1	-1	23	-1	-1	45	-1	-1	43	9	-1	18	41	31	53	-1	-1	34	4	-1	-1	48	49	-1	20	24	-1	39	25	-1	62	50	56	7
16	-1	-1	-1	42	31	2	55	-1	-1	-1	46	-1	22	52	-1	45	35	-1	9	41	-1	20	26	-1	6	43	61	11	15	-1	33	50	-1	-1	36	12	62	-1	-1	29	27	30	-1	-1	3	-1	4	-1	18	-1	-1	7	-1	51	-1	-1	40	32	54	47	-1	53	10
-1	-1	19	-1	-1	17	60	26	-1	37	23	31	42	-1	-1	45	24	21	-1	-1	12	51	-1	36	39	-1	30	-1	20	-1	-1	-1	16	-1	-1	-1	15	10	38	46	7	-1	25	22	48	-1	11	-1	8	-1	32	-1	40	-1	33	62	9	49	29	35	-1	-1	-1	3
38	-1	-1	-1	18	-1	27	11	44	-1	-1	-1	-1	-1	61	-1	60	58	-1	16	-1	4	2	50	-1	-1	-1	-1	53	45	-1	-1	1	24	41	-1	49	25	-1	13	19	-1	54	-1	46	-1	-1	-1	12	-1	-1	-1	-1	9	-1	47	-1	33	-1	17	51	-1	-1	-1
-1	-1	49	9	-1	30	-1	-1	-1	12	-1	-1	54	18	53	44	-1	15	-1	10	62	19	-1	-1	40	36	-1	52	-1	11	46	-1	-1	-1	-1	8	28	41	23	-1	63	2	27	-1	-1	13	48	50	-1	-1	-1	51	-1	38	47	-1	-1	-1	-1	-1	26	16	-1	-1
-1	-1	-1	-1	16	-1	-1	46	-1	23	43	17	-1	28	62	24	51	-1	-1	-1	40	49	-1	-1	4	10	-1	-1	-1	-1	-1	57	13	-1	2	-1	-1	-1	44	-1	-1	-1	-1	45	-1	9	29	19	-1	-1	18	-1	5	-1	26	-1	-1	-1	-1	7	34	59	-1	14
-1	-1	-1	-1	-1	28	-1	45	22	-1	-1	-1	-1	-1	48	15	-1	-1	9	-1	-1	37	-1	-1	-1	-1	-1	7	-1	-1	-1	-1	-1	36	-1	-1	11	32	-1	-1	16	23	44	-1	38	-1	-1	61	-1	-1	40	42	34	-1	-1	-1	-1	31	63	47	-1	-1	33	-1
-1	62	-1	-1	-1	26	4	-1	21	11	-1	32	13	40	-1	-1	18	-1	-1	3	-1	-1	38	45	27	-1	34	39	22	41	19	-1	-1	31	-1	56	10	49	-1	-1	12	-1	-1	25	-1	47	15	-1	55	-1	2	-1	63	17	16	30	61	-1	-1	64	-1	48	-1	-1
15	-1	10	42	8	38	20	-1	-1	-1	-1	4	16	-1	9	1	-1	-1	13	-1	55	28	41	2	-1	26	-1	-1	12	-1	48	-1	47	18	45	39	-1	-1	27	-1	46	34	59	-1	17	33	-1	-1	31	54	64	7	-1	23	49	-1	-1	-1	40	25	3	62	-1	52
18	2	-1	39	-1	-1	24	-1	8	51	20	-1	47	56	-1	31	5	64	-1	60	-1	-1	-1	-1	62	-1	-1	55	-1	44	-1	25	-1	-1	-1	-1	-1	48	-1	-1	22	-1	35	-1	36	40	26	-1	37	32	-1	-1	28	-1	59	3	-1	21	13	12	-1	-1	-1	9
25	-1	-1	13	-1	22	-1	-1	-1	-1	41	34	-1	-1	37	-1	31	36	32	29	-1	-1	-1	-1	-1	16	47	38	61	-1	5	43	55	-1	-1	62	-1	21	9	26	-1	-1	-1	-1	39	-1	18	-1	45	48	-1	-1	-1	-1	50	-1	-1	4	-1	2	-1	-1	-1	-1
-1	31	34	44	-1	-1	-1	-1	-1	-1	-1	27	-1	-1	-1	-1	26	-1	16	-1	-1	-1	6	-1	-1	-1	42	-1	8	56	9	-1	-1	15	50	12	40	-1	-1	22	-1	5	4	-1	-1	-1	37	-1	36	-1	35	-1	-1	39	-1	-1	-1	-1	38	41	10	23	55	-1
63	-1	-1	-1	-1	39	-1	-1	47	4	-1	28	-1	3	10	-1	1	-1	-1	-1	-1	-1	31	-1	19	-1	14	-1	-1	9	-1	48	-1	12	-1	33	13	40	30	-1	49	58	-1	-1	45	27	55	11	2	-1	-1	-1	51	-1	-1	59	-1	-1	-1	-1	-1	26	-1	-1
43	36	-1	-1	44	-1	47	-1	35	-1	-1	49	-1	16	-1	-1	-1	11	-1	59	51	54	50	-1	57	22	39	-1	-1	38	24	64	31	-1	5	61	-1	8	-1	14	37	-1	-1	19	18	46	-1	2	7	-1	23	40	41	12	-1	-1	-1	25	48	30	45	-1	-1	-1
20	54	-1	24	56	57	-1	14	-1	61	44	-1	25	37	-1	12	58	-1	-1	45	-1	-1	-1	-1	50	5	26	-1	52	-1	40	4	21	-1	55	22	48	-1	-1	-1	-1	38	-1	34	31	7	3	23	9	13	43	-1	-1	-1	-1	17	42	60	-1	-1	64	2	-1	39
-1	19	-1	-1	-1	34	42	-1	-1	-1	-1	13	-1	-1	-1	39	20	-1	14	-1	-1	5	-1	44	55	3	-1	-1	36	6	16	2	62	28	-1	59	23	-1	49	63	-1	-1	52	-1	-1	-1	35	30	53	46	-1	26	58	11	-1	37	15	-1	-1	32	-1	27	-1	-1
-1	51	-1	-1	5	-1	40	-1	19	-1	-1	38	59	50	42	-1	13	46	34	-1	-1	30	22	21	-1	45	-1	12	23	-1	-1	-1	-1	6	-1	47	-1	9	-1	-1	14	-1	-1	54	-1	-1	53	16	-1	64	48	-1	10	-1	-1	36	-1	1	57	-1	56	41	28	-1
-1	32	2	25	3	-1	10	-1	27	-1	-1	36	-1	-1	17	-1	40	12	-1	-1	60	-1	-1	-1	1	43	-1	37	59	53	-1	-1	52	-1	-1	11	50	-1	26	34	-1	-1	5	63	6	42	28	-1	14	-1	22	21	-1	16	-1	19	-1	-1	-1	-1	58	20	-1	23
-1	28	-1	-1	-1	7	-1	27	32	-1	31	-1	5	-1	-1	21	-1	26	2	25	36	-1	-1	-1	-1	29	-1	-1	-1	-1	51	17	-1	64	19	35	-1	-1	-1	3	24	61	-1	48	-1	-1	50	-1	-1	30	33	34	4	20	38	-1	14	16	-1	59	40	-1	-1	-1
61	-1	4	52	45	-1	64	-1	14	-1	-1	-1	-1	15	26	-1	17	-1	27	-1	6	-1	-1	-1	34	46	-1	56	-1	8	-1	35	-1	38	51	42	-1	16	2	1	44	32	-1	-1	-1	-1	-1	-1	-1	-1	63	-1	25	-1	-1	54	3	-1	-1	-1	-1	-1	-1	-1
-1	16	-1	-1	47	53	32	25	-1	21	-1	-1	55	-1	-1	-1	-1	-1	-1	-1	58	9	5	6	11	-1	62	-1	7	-1	-1	49	43	-1	-1	-1	41	45	15	-1	18	44	-1	29	42	-1	23	52	10	-1	-1	-1	13	-1	14	-1	64	-1	8	-1	59	17	39	-1
37	9	45	-1	-1	51	7	17	25	32	22	-1	61	6	19	-1	56	50	36	39	15	-1	-1	-1	-1	58	31	2	-1	-1	26	-1	42	33	-1	-1	54	52	-1	-1	-1	-1	-1	14	-1	-1	-1	-1	-1	-1	-1	41	-1	-1	-1	1	21	-1	62	-1	-1	10	-1	47
-1	42	-1	-1	43	8	26	49	64	60	-1	45	-1	23	-1	2	-1	44	35	63	28	-1	-1	33	-1	-1	24	17	6	-1	3	-1	34	46	-1	7	-1	57	21	58	-1	36	-1	-1	9	41	47	-1	-1	-1	4	18	39	27	22	38	-1	14	31	-1	-1	5	29	1
10	-1	-1	-1	13	-1	29	-1	17	-1	-1	48	-1	-1	4	-1	53	-1	62	-1	14	-1	11	-1	-1	38	-1	28	60	-1	22	45	9	59	26	-1	6	-1	-1	31	39	-1	8	-1	54	12	25	46	-1	-1	-1	-1	36	50	-1	33	-1	37	-1	-1	42	-1	61	24
52	5	39	-1	15	27	-1	22	-1	-1	-1	-1	24	-1	-1	43	37	-1	17	-1	-1	-1	-1	-1	-1	34	-1	-1	-1	1	-1	51	-1	16	20	49	-1	14	8	-1	-1	-1	-1	13	63	60	-1	-1	29	59	62	2	-1	47	11	9	-1	50	6	23	4	-1	58	48
-1	64	-1	-1	19	4	59	6	34	18	-1	-1	44	-1	13	29	-1	-1	-1	20	-1	16	26	10	-1	56	55	-1	27	-1	33	-1	63	-1	-1	-1	39	-1	53	60	51	-1	-1	38	15	-1	58	-1	-1	-1	-1	49	8	40	32	-1	-1	-1	45	-1	9	3	2	-1
-1	-1	-1	-1	38	20	-1	36	-1	-1	62	-1	27	-1	35	9	34	-1	59	47	43	-1	57	-1	-1	40	-1	44	39	14	50	13	-1	2	-1	5	37	-1	-1	48	4	19	-1	56	11	-1	-1	26	-1	45	3	23	-1	30	60	-1	-1	63	-1	-1	41	33	-1	-1
60	-1	24	-1	63	21	-1	33	31	-1	14	-1	-1	-1	59	-1	2	-1	-1	-1	-1	3	-1	-1	-1	-1	-1	42	-1	-1	25	-1	4	13	-1	55	47	-1	61	-1	10	-1	1	32	22	-1	-1	62	16	-1	-1	-1	-1	-1	5	56	-1	-1	27	19	7	35	38	-1
59	-1	64	-1	54	-1	-1	51	-1	44	-1	-1	3	-1	-1	-1	7	6	-1	5	-1	56	-1	-1	28	47	1	43	-1	61	-1	-1	41	22	49	21	17	-1	60	-1	-1	-1	36	2	10	-1	13	-1	58	55	39	-1	-1	4	12	15	57	52	26	45	-1	-1	-1	19
-1	7	-1	12	50	46	1	-1	-1	6	52	-1	-1	61	-1	48	4	3	-1	-1	-1	53	-1	17	51	54	16	36	63	13	45	-1	11	5	40	10	-1	2	33	-1	8	-1	19	-1	20	-1	41	-1	-1	-1	57	38	-1	-1	-1	29	58	-1	-1	14	27	-1	23	-1
31	15	11	-1	-1	5	-1	-1	24	-1	45	-1	4	-1	-1	-1	50	-1	20	-1	-1	-1	-1	29	-1	35	-1	-1	-1	57	62	39	-1	55	-1	16	27	-1	37	-1	40	12	53	26	-1	22	14	-1	17	-1	44	32	-1	3	41	-1	-1	2	-1	-1	21	-1	25	46
-1	35	32	-1	-1	47	17	28	36	33	-1	21	-1	25	-1	56	48	-1	-1	-1	13	-1	37	-1	8	-1	52	26	-1	-1	59	41	-1	43	31	23	-1	-1	34	12	-1	-1	11	4	3	-1	-1	55	6	42	-1	50	30	64	-1	-1	-1	-1	-1	-1	24	39	-1	16
21	-1	14	27	-1	42	56	23	62	26	-1	-1	57	11	-1	-1	46	54	-1	2	-1	-1	55	-1	-1	-1	-1	-1	-1	-1	6	19	64	-1	39	48	-1	-1	1	-1	-1	-1	51	-1	44	25	7	38	59	34	45	22	31	8	53	-1	-1	10	-1	18	-1	-1	-1	-1
2	29	9	-1	4	3	-1	-1	-1	-1	-1	23	19	31	22	-1	-1	-1	-1	-1	-1	63	-1	-1	-1	55	38	-1	-1	-1	27	-1	26	-1	-1	57	-1	-1	50	61	-1	45	-1	15	-1	18	-1	-1	47	11	-1	-1	33	-1	-1	20	40	6	41	-1	32	12	17	-1
-1	6	22	62	26	-1	-1	-1	-1	-1	-1	-1	-1	39	49	-1	57	16	25	-1	23	-1	-1	-1	-1	-1	20	-1	-1	-1	18	-1	45	14	-1	-1	-1	47	51	54	-1	-1	29	-1	28	-1	64	21	-1	43	-1	56	61	-1	-1	2	-1	15	4	-1	35	-1	63	30
-1	-1	-1	-1	-1	49	-1	-1	-1	8	32	29	2	-1	51	55	33	41	-1	30	39	-1	45	9	-1	-1	7	-1	17	22	15	14	-1	58	13	-1	-1	-1	28	25	-1	-1	-1	-1	24	6	5	48	-1	63	1	-1	23	-1	21	16	-1	-1	61	-1	-1	42	62	54
45	53	25	3	2	-1	-1	-1	20	-1	-1	-1	32	17	-1	26	10	-1	51	-1	-1	-1	-1	-1	-1	-1	-1	-1	-1	28	-1	27	-1	44	-1	14	-1	39	13	35	31	-1	58	46	41	-1	54	-1	-1	-1	-1	12	-1	-1	-1	-1	56	8	43	24	1	40	5	21
-1	-1	-1	10	-1	-1	51	15	-1	-1	50	40	-1	-1	-1	-1	-1	13	58	-1	-1	-1	-1	16	-1	-1	-1	19	21	26	-1	34	-1	-1	-1	-1	-1	-1	-1	-1	-1	-1	61	-1	-1	-1	-1	22	38	-1	-1	-1	54	-1	64	-1	48	-1	-1	60	63	-1	-1	-1
-1	-1	-1	38	55	23	-1	-1	2	35	64	33	41	-1	58	-1	-1	45	-1	-1	5	-1	9	-1	-1	-1	3	63	-1	12	-1	24	-1	-1	-1	32	-1	11	-1	-1	-1	-1	-1	-1	-1	-1	-1	25	-1	20	13	-1	-1	-1	17	7	27	-1	59	57	6	14	-1	50
17	-1	-1	29	6	54	19	-1	-1	31	-1	-1	-1	38	-1	37	23	59	21	14	22	32	53	-1	60	-1	-1	47	-1	35	61	-1	48	50	-1	43	-1	-1	55	-1	15	11	-1	-1	2	49	24	-1	18	4	34	45	27	-1	-1	41	-1	-1	-1	58	-1	-1	-1	-1
-1	-1	43	14	34	-1	-1	7	49	-1	-1	-1	12	19	-1	-1	-1	-1	-1	38	-1	50	-1	20	58	-1	59	53	41	-1	29	-1	-1	9	15	54	-1	-1	-1	-1	56	-1	-1	35	52	-1	-1	-1	60	-1	-1	-1	21	-1	-1	10	-1	32	-1	31	17	13	-1	37
-1	13	-1	-1	-1	-1	-1	12	-1	-1	30	-1	-1	-1	-1	-1	3	-1	-1	-1	48	41	-1	27	-1	-1	50	-1	64	-1	-1	-1	-1	-1	-1	-1	61	-1	-1	-1	-1	-1	18	-1	26	-1	-1	36	-1	31	9	33	6	-1	1	35	4	38	39	49	-1	-1	-1	20
-1	-1	-1	-1	-1	41	35	-1	-1	-1	21	-1	43	52	-1	-1	12	30	46	54	-1	-1	63	19	9	-1	-1	14	45	55	7	-1	-1	-1	28	-1	-1	1	-1	-1	-1	-1	-1	59	13	48	-1	6	-1	-1	-1	3	57	-1	-1	50	-1	36	-1	-1	-1	64	-1	-1
-1	-1	44	28	24	-1	-1	-1	9	59	-1	-1	-1	-1	23	-1	64	-1	60	-1	-1	-1	-1	-1	10	-1	-1	-1	-1	-1	13	-1	-1	21	17	46	4	19	63	41	-1	-1	37	12	29	-1	-1	-1	32	40	-1	43	-1	14	-1	-1	-1	-1	55	16	-1	34	22	35
19	60	-1	-1	-1	-1	-1	-1	6	22	-1	59	1	14	5	40	-1	-1	3	7	44	25	-1	-1	24	11	4	9	42	16	-1	29	57	48	-1	-1	35	-1	-1	2	-1	-1	-1	30	51	23	-1	-1	-1	-1	41	52	50	-1	-1	45	28	-1	15	10	36	55	-1	-1
62	18	48	22	-1	40	-1	-1	-1	17	-1	-1	20	33	25	-1	63	43	-1	-1	-1	-1	-1	4	-1	-1	51	1	-1	-1	-1	47	-1	-1	-1	27	-1	46	36	-1	-1	-1	21	-1	-1	-1	-1	12	13	-1	-1	44	-1	29	-1	-1	-1	-1	53	-1	57	-1	49	-1
23	49	-1	15	51	-1	3	44	-1	50	38	56	52	-1	24	-1	-1	5	-1	64	-1	-1	-1	-1	-1	18	-1	57	-1	10	60	46	-1	8	-1	41	-1	61	-1	7	35	-1	-1	37	-1	-1	45	54	-1	-1	31	-1	9	-1	30	-1	-1	58	-1	21	48	47	-1	-1
24	56	-1	-1	25	-1	45	10	43	54	-1	-1	-1	4	46	-1	14	27	53	-1	-1	6	35	38	-1	48	22	23	26	62	-1	-1	19	-1	-1	-1	-1	17	40	-1	20	-1	9	7	-1	2	36	-1	64	15	-1	28	-1	-1	42	5	-1	51	18	-1	33	8	-1	-1
-1	-1	-1	-1	7	-1	57	-1	-1	36	-1	-1	26	2	64	27	-1	17	19	41	-1	60	10	-1	-1	-1	35	-1	14	-1	-1	63	49	23	-1	31	20	24	42	-1	47	-1	-1	-1	-1	-1	-1	40	51	38	-1	-1	-1	58	-1	6	-1	-1	22	3	50	-1	-1	-1
1	-1	-1	-1	9	14	28	58	23	10	57	-1	-1	-1	21	7	-1	-1	-1	-1	-1	-1	12	51	45	30	41	-1	5	59	2	36	18	25	-1	13	33	-1	6	-1	53	17	26	-1	-1	-1	34	-1	24	8	-1	-1	3	-1	-1	-1	-1	-1	42	-1	38	44	20	40
-1	-1	13	-1	20	-1	8	41	-1	-1	53	-1	39	45	32	49	36	56	-1	23	2	24	16	46	31	-1	-1	-1	-1	7	64	-1	44	26	1	-1	51	50	-1	4	42	-1	-1	-1	-1	19	-1	18	-1	57	12	-1	-1	-1	-1	-1	34	-1	-1	5	54	-1	-1	62
-1	-1	27	34	-1	-1	37	-1	28	58	11	-1	48	-1	-1	18	-1	-1	-1	57	-1	-1	-1	15	-1	50	25	8	38	39	54	-1	-1	-1	63	-1	-1	5	-1	43	-1	-1	-1	-1	-1	-1	-1	13	-1	-1	-1	16	1	-1	23	4	31	-1	9	26	61	-1	14	12
-1	-1	-1	-1	35	-1	12	-1	42	-1	-1	25	-1	64	-1	50	11	38	41	31	7	-1	-1	-1	-1	28	-1	-1	34	-1	21	3	36	49	43	-1	2	55	24	-1	-1	-1	63	-1	-1	14	27	32	-1	37	59	6	-1	-1	-1	-1	-1	-1	52	53	-1	-1	-1	-1
44	3	16	2	-1	43	-1	63	-1	-1	-1	55	7	-1	-1	-1	29	32	52	-1	49	-1	-1	-1	48	-1	15	-1	51	-1	-1	5	12	-1	-1	4	42	-1	-1	-1	11	-1	-1	24	-1	-1	46	-1	23	-1	26	20	18	-1	-1	-1	-1	-1	-1	37	30	6	36	-1
53	14	-1	59	37	-1	6	5	26	-1	-1	-1	51	32	2	-1	-1	23	45	-1	50	-1	62	12	7	-1	-1	-1	-1	-1	-1	18	-1	-1	-1	-1	-1	3	52	57	41	-1	-1	-1	-1	-1	-1	29	-1	-1	58	-1	-1	54	55	-1	-1	11	17	48	8	38	-1	27
9	24	-1	48	-1	-1	50	-1	-1	28	-1	-1	-1	-1	12	23	16	42	56	22	27	-1	58	55	-1	2	-1	-1	-1	-1	-1	-1	-1	53	-1	-1	62	38	-1	-1	26	59	3	-1	30	51	43	-1	-1	36	-1	-1	29	-1	-1	60	10	-1	5	33	-1	61	-1	-1
-1	17	-1	19	-1	11	-1	-1	41	-1	36	44	-1	48	16	63	-1	-1	-1	21	30	18	60	-1	-1	-1	54	59	10	58	-1	52	29	45	33	-1	26	6	-1	28	-1	40	-1	62	-1	8	22	56	-1	-1	-1	31	-1	34	27	51	20	57	-1	50	-1	32	9	-1
-1	-1	-1	7	32	-1	36	47	45	-1	3	-1	-1	-1	31	-1	8	-1	64	46	-1	-1	40	-1	-1	42	-1	22	13	17	-1	-1	37	-1	14	-1	58	-1	-1	15	-1	-1	-1	-1	21	-1	38	28	50	49	16	24	62	-1	-1	-1	-1	59	-1	-1	-1	25	-1	-1
54	-1	33	-1	-1	-1	46	-1	-1	-1	47	-1	-1	27	-1	6	-1	2	48	26	-1	-1	-1	59	38	57	-1	29	55	-1	-1	-1	-1	-1	35	50	18	-1	11	-1	45	25	-1	-1	61	-1	20	-1	3	41	14	-1	-1	-1	39	-1	44	-1	-1	42	-1	-1	-1	-1
34	-1	29	-1	58	-1	-1	-1	56	49	-1	5	-1	21	-1	30	6	-1	-1	33	57	17	47	3	-1	-1	11	-1	-1	-1	-1	-1	-1	60	-1	20	-1	13	10	-1	-1	42	48	-1	37	15	-1	-1	-1	7	-1	-1	-1	-1	4	-1	-1	-1	54	-1	14	46	-1	18
64 
18 47 4 41
61 50 36 29
2 30 42 39
54 2 9 19
9 58 39 49
13 28 48 20
15 48 46 18
5 1 4 14
58 11 12 52
55 43 63 6
40 22 15 59
5 57 23 5
44 11 3 41
61 13 14 26
47 63 17 54
51 57 38 10
21 43 14 23
19 7 48 12
40 8 28 18
8 59 26 53
46 5 38 23
5 2 36 22
46 61 63 59
13 48 6 10
53 45 31 56
25 58 32 53
1 33 45 10
59 56 51 17
19 38 43 58
8 10 44 32
58 43 42 5
8 16 46 26
2 44 48 18
33 31 6 22
8 6 40 33
63 46 37 57
47 3 24 63
47 32 58 10
32 10 6 47
15 2 55 55
1 5 10 2
31 53 14 24
16 38 37 41
4 61 15 53
42 46 64 2
45 63 57 53
54 17 49 39
53 55 24 24
56 17 14 29
52 4 64 41
45 33 28 38
10 9 41 26
19 12 10 27
60 33 38 41
61 41 41 18
63 32 29 33
29 62 44 24
24 31 21 16
24 47 2 14
23 38 37 61
20 20 47 60
56 39 8 32
60 36 18 19
28 24 64 6
